100 1278
1 2 1
1 7 1
1 9 -1
1 11 -1
1 12 1
1 16 -1
1 17 -1
1 18 -1
1 19 -1
1 20 -1
1 27 -1
1 33 -1
1 36 -1
1 42 1
1 45 -1
1 48 1
1 51 -1
1 56 1
1 57 -1
1 59 1
1 63 -1
1 64 1
1 68 -1
1 72 -1
1 77 1
1 79 -1
1 82 -1
1 83 -1
1 86 -1
1 89 -1
1 93 1
1 99 1
1 100 -1
2 6 1
2 10 -1
2 13 1
2 15 1
2 19 1
2 20 -1
2 21 1
2 23 -1
2 34 1
2 40 1
2 41 1
2 47 1
2 48 1
2 51 1
2 57 1
2 59 -1
2 60 -1
2 65 1
2 70 1
2 78 -1
2 86 1
2 95 -1
2 97 -1
3 11 -1
3 19 1
3 24 -1
3 25 -1
3 28 1
3 31 1
3 43 -1
3 44 1
3 53 1
3 55 1
3 61 1
3 64 1
3 71 1
3 73 -1
3 88 1
3 89 -1
3 96 -1
4 5 -1
4 10 1
4 11 1
4 18 -1
4 21 1
4 23 -1
4 24 -1
4 27 -1
4 32 1
4 35 1
4 48 1
4 59 -1
4 63 -1
4 72 1
4 73 -1
4 74 -1
4 75 -1
4 80 -1
4 84 -1
4 87 -1
4 88 1
5 7 -1
5 8 -1
5 10 1
5 11 -1
5 20 1
5 23 -1
5 26 -1
5 31 1
5 32 1
5 34 -1
5 35 -1
5 38 1
5 45 -1
5 48 -1
5 49 -1
5 50 -1
5 51 -1
5 52 -1
5 53 1
5 59 -1
5 60 1
5 67 1
5 68 -1
5 70 1
5 75 -1
5 82 -1
5 86 1
5 90 -1
5 92 1
5 94 -1
6 8 1
6 9 -1
6 12 1
6 16 1
6 25 -1
6 31 -1
6 35 1
6 36 -1
6 39 1
6 43 1
6 46 1
6 57 -1
6 60 -1
6 61 -1
6 66 -1
6 67 -1
6 73 -1
6 76 1
6 77 1
6 78 -1
6 82 -1
6 86 -1
6 94 -1
7 8 1
7 9 -1
7 10 1
7 14 1
7 15 1
7 18 -1
7 28 1
7 29 1
7 30 1
7 31 -1
7 34 -1
7 35 -1
7 37 1
7 48 1
7 49 1
7 53 -1
7 55 -1
7 60 -1
7 65 -1
7 76 -1
7 77 -1
7 81 1
7 85 1
7 86 -1
7 87 1
7 91 1
7 93 -1
7 95 -1
7 97 1
8 10 -1
8 19 1
8 22 1
8 23 -1
8 25 1
8 30 -1
8 33 1
8 44 -1
8 50 -1
8 54 -1
8 55 -1
8 57 -1
8 58 -1
8 60 -1
8 63 -1
8 66 -1
8 70 1
8 85 1
8 87 1
8 88 -1
8 90 -1
8 97 -1
9 12 -1
9 18 -1
9 24 1
9 26 -1
9 29 1
9 31 -1
9 32 -1
9 43 1
9 47 1
9 48 -1
9 56 1
9 61 1
9 62 -1
9 66 -1
9 68 -1
9 69 -1
9 71 1
9 72 1
9 77 -1
9 78 1
9 79 -1
9 81 1
9 84 1
9 94 -1
10 12 -1
10 23 -1
10 27 1
10 31 1
10 38 -1
10 41 -1
10 43 -1
10 44 1
10 47 -1
10 48 -1
10 49 -1
10 50 -1
10 58 1
10 61 -1
10 64 -1
10 67 1
10 72 1
10 73 -1
10 75 1
10 82 1
10 87 -1
10 93 1
10 94 1
10 95 1
10 96 -1
11 23 -1
11 24 1
11 34 -1
11 35 -1
11 38 -1
11 43 -1
11 47 1
11 50 1
11 53 1
11 54 1
11 55 1
11 57 -1
11 59 -1
11 60 -1
11 62 1
11 68 1
11 71 1
11 75 -1
11 78 1
11 81 1
11 82 -1
11 83 1
11 88 1
11 92 1
11 99 -1
12 13 1
12 15 1
12 19 1
12 20 1
12 21 1
12 25 1
12 41 1
12 51 1
12 56 -1
12 57 -1
12 59 1
12 62 -1
12 67 -1
12 71 -1
12 78 -1
12 80 1
12 81 -1
12 84 1
12 85 1
12 88 1
12 92 1
12 96 1
12 98 1
13 15 1
13 18 -1
13 33 1
13 37 1
13 38 1
13 46 -1
13 52 1
13 56 -1
13 67 -1
13 70 -1
13 74 1
13 80 1
13 81 1
13 88 -1
13 100 1
14 20 -1
14 35 -1
14 36 1
14 39 1
14 40 1
14 42 -1
14 50 -1
14 51 -1
14 53 1
14 55 -1
14 56 1
14 57 -1
14 60 -1
14 61 1
14 75 1
14 76 -1
14 78 -1
14 79 -1
14 82 1
14 85 -1
14 86 -1
14 90 -1
14 92 -1
14 98 -1
15 20 1
15 24 1
15 25 -1
15 32 1
15 40 1
15 45 1
15 46 1
15 53 -1
15 54 1
15 55 -1
15 62 -1
15 63 -1
15 65 1
15 73 -1
15 74 1
16 19 -1
16 21 -1
16 26 -1
16 30 -1
16 32 -1
16 35 1
16 45 -1
16 46 -1
16 54 1
16 57 1
16 60 -1
16 61 -1
16 64 -1
16 66 1
16 71 1
16 74 -1
16 75 -1
16 81 1
16 85 1
16 86 -1
17 23 1
17 29 1
17 33 1
17 34 -1
17 37 1
17 47 1
17 51 1
17 52 1
17 58 1
17 60 -1
17 64 -1
17 71 -1
17 72 -1
17 73 -1
17 77 -1
17 81 1
17 87 -1
17 97 -1
17 98 1
18 25 1
18 27 -1
18 31 -1
18 32 1
18 37 -1
18 46 1
18 48 -1
18 51 -1
18 54 -1
18 55 -1
18 57 -1
18 59 -1
18 64 1
18 65 -1
18 70 -1
18 71 1
18 73 -1
18 74 -1
18 83 1
18 86 1
18 93 -1
18 96 -1
18 100 -1
19 22 -1
19 23 -1
19 25 -1
19 29 1
19 33 -1
19 37 -1
19 38 -1
19 41 1
19 42 -1
19 45 1
19 46 1
19 47 -1
19 50 -1
19 54 1
19 55 -1
19 57 1
19 63 -1
19 65 1
19 66 -1
19 72 -1
19 79 1
19 82 -1
19 84 1
19 86 -1
19 87 -1
19 88 1
19 91 -1
19 92 1
19 94 1
19 95 -1
19 99 -1
20 25 1
20 31 1
20 39 -1
20 40 -1
20 43 1
20 53 -1
20 57 -1
20 60 1
20 65 -1
20 67 -1
20 68 -1
20 70 1
20 71 -1
20 75 1
20 78 1
20 79 1
20 81 -1
20 82 1
20 87 -1
20 97 -1
20 98 1
21 24 1
21 25 1
21 31 1
21 32 1
21 36 1
21 39 -1
21 40 1
21 45 1
21 47 1
21 48 -1
21 51 -1
21 57 -1
21 58 -1
21 63 1
21 65 1
21 72 -1
21 79 1
21 81 -1
21 82 1
21 83 -1
21 84 1
21 87 -1
21 89 1
21 95 -1
21 99 1
22 23 -1
22 26 1
22 32 1
22 33 -1
22 35 -1
22 37 -1
22 41 -1
22 42 1
22 45 1
22 49 -1
22 50 1
22 56 1
22 59 -1
22 60 -1
22 76 -1
22 77 1
22 79 1
22 81 -1
22 83 -1
22 86 -1
22 90 1
22 91 1
22 92 -1
22 98 -1
22 100 -1
23 29 1
23 32 1
23 34 1
23 35 -1
23 39 1
23 46 1
23 49 -1
23 51 1
23 53 -1
23 54 -1
23 62 1
23 66 1
23 67 1
23 70 1
23 76 1
23 77 1
23 80 1
23 82 1
23 83 1
23 87 -1
23 88 1
23 90 1
23 92 -1
23 98 1
24 26 -1
24 30 1
24 31 1
24 39 1
24 41 1
24 45 1
24 55 1
24 57 -1
24 69 1
24 73 -1
24 75 1
24 76 -1
24 84 -1
24 94 -1
24 99 1
25 26 -1
25 27 -1
25 29 -1
25 33 1
25 36 1
25 41 -1
25 43 -1
25 45 -1
25 50 -1
25 51 1
25 53 -1
25 67 1
25 78 1
25 92 1
26 32 1
26 34 1
26 35 1
26 37 -1
26 41 1
26 42 -1
26 45 -1
26 52 -1
26 56 -1
26 59 -1
26 61 -1
26 65 -1
26 75 1
26 79 -1
26 80 -1
26 85 1
26 88 1
26 92 -1
26 93 1
26 96 1
27 28 -1
27 29 1
27 31 -1
27 36 -1
27 37 1
27 39 -1
27 41 1
27 48 1
27 49 -1
27 62 1
27 65 -1
27 70 -1
27 79 -1
27 81 1
27 83 -1
27 87 -1
27 91 -1
27 100 1
28 32 1
28 35 -1
28 40 -1
28 47 1
28 48 1
28 52 1
28 55 1
28 57 -1
28 58 1
28 63 1
28 66 -1
28 68 1
28 69 1
28 71 -1
28 77 -1
28 90 -1
28 93 -1
28 96 1
29 38 -1
29 42 1
29 44 1
29 52 -1
29 54 -1
29 55 -1
29 58 -1
29 61 -1
29 65 1
29 74 -1
29 81 -1
29 87 -1
29 94 1
29 97 -1
29 100 -1
30 31 -1
30 34 -1
30 35 1
30 36 1
30 37 1
30 45 -1
30 47 1
30 53 1
30 54 1
30 55 -1
30 61 1
30 65 -1
30 66 1
30 68 -1
30 70 -1
30 77 -1
30 80 -1
30 82 1
30 85 -1
30 86 1
30 94 -1
30 95 -1
30 97 -1
30 98 1
30 100 -1
31 33 -1
31 40 -1
31 41 1
31 42 -1
31 50 -1
31 59 -1
31 61 -1
31 62 1
31 63 -1
31 66 1
31 71 1
31 73 1
31 77 -1
31 78 -1
31 89 1
31 91 -1
31 100 1
32 40 -1
32 42 -1
32 43 1
32 45 1
32 47 1
32 49 -1
32 60 -1
32 62 -1
32 68 -1
32 73 -1
32 76 1
32 77 -1
32 78 1
32 80 1
32 81 1
32 85 1
32 88 1
32 91 -1
32 94 -1
33 34 1
33 38 1
33 42 -1
33 47 1
33 48 1
33 52 -1
33 60 -1
33 62 -1
33 69 1
33 72 -1
33 74 1
33 75 -1
33 80 -1
33 82 1
33 83 1
33 89 -1
33 91 1
33 92 -1
33 93 1
33 94 -1
33 97 -1
33 98 1
33 99 -1
34 36 1
34 37 -1
34 39 -1
34 41 -1
34 47 -1
34 49 -1
34 61 1
34 63 -1
34 64 -1
34 65 -1
34 67 -1
34 72 1
34 87 -1
34 90 1
34 91 1
34 93 -1
34 96 1
35 41 -1
35 43 -1
35 51 -1
35 52 -1
35 57 -1
35 61 -1
35 72 -1
35 74 1
35 76 1
35 77 -1
35 80 1
35 81 -1
35 82 1
35 84 1
35 86 -1
35 88 -1
35 91 1
36 39 -1
36 40 1
36 49 1
36 54 1
36 55 -1
36 57 -1
36 58 -1
36 63 -1
36 66 -1
36 70 -1
36 71 1
36 73 1
36 74 1
36 78 -1
36 80 -1
36 87 1
36 94 -1
37 39 -1
37 42 1
37 43 1
37 47 -1
37 53 -1
37 56 1
37 59 1
37 60 -1
37 67 -1
37 72 1
37 75 -1
37 79 -1
37 80 -1
37 87 1
37 92 1
37 95 -1
38 39 -1
38 44 1
38 46 1
38 47 1
38 50 1
38 51 -1
38 58 -1
38 60 -1
38 65 1
38 72 -1
38 78 1
38 80 -1
38 82 1
38 83 1
38 84 1
38 86 1
38 94 1
38 96 1
38 99 1
39 44 1
39 47 -1
39 59 1
39 60 1
39 61 1
39 62 1
39 68 1
39 72 -1
39 73 1
39 74 1
39 91 1
39 97 -1
39 98 1
40 41 -1
40 47 -1
40 50 1
40 53 1
40 55 -1
40 57 1
40 58 1
40 63 1
40 64 -1
40 66 -1
40 75 1
40 80 1
40 84 -1
40 86 -1
40 87 1
40 89 -1
40 90 -1
40 91 -1
40 95 1
40 96 -1
40 98 -1
40 100 1
41 42 -1
41 44 -1
41 49 -1
41 52 1
41 61 1
41 63 -1
41 66 1
41 75 -1
41 77 1
41 82 1
41 83 1
41 98 -1
42 48 1
42 56 -1
42 62 -1
42 66 1
42 69 1
42 70 1
42 73 -1
42 79 1
42 82 -1
42 84 1
42 86 -1
42 93 1
43 60 1
43 62 1
43 66 1
43 69 1
43 72 -1
43 75 1
43 81 -1
43 85 1
43 87 -1
43 90 -1
43 91 -1
43 100 1
44 45 -1
44 47 -1
44 48 -1
44 50 -1
44 59 1
44 61 1
44 69 1
44 75 1
44 81 1
44 83 1
44 86 -1
44 91 1
44 92 -1
44 96 -1
44 99 -1
44 100 1
45 47 1
45 48 -1
45 59 1
45 60 -1
45 62 1
45 66 1
45 74 -1
45 81 -1
45 83 -1
45 84 1
45 89 1
45 90 1
45 92 -1
45 95 1
45 96 1
45 98 -1
46 54 1
46 55 1
46 56 -1
46 57 -1
46 64 -1
46 66 1
46 68 1
46 75 1
46 79 1
46 80 1
46 81 1
46 89 -1
46 94 -1
47 62 -1
47 66 1
47 70 1
47 71 1
47 74 1
47 83 1
47 85 1
47 88 -1
47 91 1
48 50 -1
48 54 1
48 55 -1
48 57 1
48 63 1
48 72 -1
48 75 -1
48 78 1
48 81 1
48 82 1
48 83 1
48 94 1
49 51 -1
49 53 -1
49 61 1
49 63 1
49 65 1
49 74 1
49 80 -1
49 81 1
49 82 -1
49 88 1
49 91 1
49 94 -1
49 95 1
49 96 -1
50 51 1
50 56 -1
50 64 1
50 68 -1
50 73 -1
50 75 -1
50 77 -1
50 81 1
50 89 -1
50 93 -1
50 98 -1
50 99 1
51 54 1
51 57 -1
51 58 1
51 59 -1
51 66 -1
51 69 -1
51 76 1
51 78 1
51 88 -1
51 90 1
51 97 -1
51 98 -1
52 54 -1
52 56 1
52 70 -1
52 84 -1
52 85 1
52 88 -1
52 96 -1
52 100 1
53 61 1
53 77 1
53 79 1
53 80 -1
53 91 1
53 97 1
54 56 1
54 57 -1
54 69 -1
54 70 1
54 80 1
54 83 -1
54 91 1
54 97 -1
54 98 1
55 59 -1
55 61 1
55 62 -1
55 67 -1
55 69 -1
55 70 -1
55 71 -1
55 78 -1
55 86 -1
55 93 -1
55 96 -1
56 59 -1
56 64 1
56 69 1
56 72 -1
56 74 1
56 78 -1
56 82 -1
56 83 1
56 86 -1
56 96 -1
56 98 1
57 59 1
57 64 1
57 66 1
57 74 -1
57 79 1
57 80 -1
57 82 -1
57 83 1
57 86 1
57 92 1
57 100 1
58 64 -1
58 70 1
58 71 1
58 72 1
58 73 1
58 75 -1
58 76 -1
58 78 1
58 90 1
59 63 1
59 65 1
59 74 1
59 77 1
59 78 -1
59 80 1
59 88 -1
59 94 1
59 96 1
59 98 -1
59 100 1
60 62 -1
60 64 1
60 71 1
60 74 -1
60 77 1
60 82 -1
60 90 1
60 94 -1
60 97 -1
61 65 -1
61 66 -1
61 69 -1
61 70 1
61 84 -1
61 89 1
61 91 -1
61 92 1
61 94 1
61 96 -1
61 99 -1
62 63 1
62 64 -1
62 70 1
62 73 1
62 74 1
62 78 1
62 81 1
62 83 1
62 88 -1
63 67 -1
63 68 -1
63 74 1
63 75 -1
63 79 1
63 81 -1
63 82 1
63 83 1
63 86 -1
63 87 1
63 94 -1
63 98 -1
64 67 -1
64 70 -1
64 74 -1
64 77 1
64 78 -1
64 81 1
64 87 -1
65 68 1
65 73 -1
65 76 1
65 78 1
65 87 -1
65 91 1
65 92 1
65 93 -1
65 95 -1
65 96 1
66 67 -1
66 71 1
66 72 1
66 75 -1
66 81 1
66 82 1
66 84 1
66 85 -1
66 89 -1
67 71 -1
67 72 1
67 74 1
67 75 -1
67 82 -1
67 87 1
67 88 1
67 92 -1
67 94 1
67 95 1
67 98 1
67 99 1
68 69 -1
68 72 -1
68 74 1
68 77 1
68 80 -1
68 81 1
68 89 -1
68 99 1
69 76 1
69 77 -1
69 78 1
69 80 -1
69 89 1
69 90 -1
69 93 -1
69 97 -1
70 76 -1
70 79 1
70 80 1
70 82 1
70 87 1
70 88 -1
70 92 1
70 94 -1
70 97 -1
70 98 -1
70 100 1
71 76 -1
71 82 -1
71 85 1
71 87 1
71 89 -1
71 92 -1
71 93 -1
71 96 -1
71 100 1
72 74 1
72 81 1
72 82 1
72 85 -1
72 88 -1
72 93 -1
72 95 1
73 75 -1
73 80 1
73 85 -1
73 86 -1
73 91 1
73 94 -1
73 97 -1
74 78 -1
74 91 -1
74 93 1
74 96 1
74 98 -1
75 76 1
75 78 -1
75 79 -1
75 81 -1
75 82 1
75 84 -1
75 85 1
75 97 -1
76 79 1
76 83 1
76 84 1
76 98 1
77 78 1
77 79 -1
77 80 -1
77 81 -1
77 83 1
77 87 1
77 95 -1
77 98 -1
78 83 -1
78 84 1
78 91 1
78 97 -1
78 98 1
78 99 -1
78 100 1
79 80 1
79 81 -1
79 86 1
79 87 1
79 89 1
79 92 -1
79 95 -1
79 99 -1
80 84 -1
80 85 1
80 87 1
80 88 1
80 90 -1
80 92 -1
80 94 1
80 96 1
80 98 1
81 85 -1
81 86 -1
81 87 1
81 91 1
81 92 -1
81 93 1
81 98 -1
82 83 1
82 89 -1
82 90 -1
82 92 1
83 94 -1
83 95 1
83 100 -1
84 92 1
84 99 1
85 91 -1
85 93 1
85 95 -1
85 100 1
86 87 -1
86 89 -1
86 96 1
87 88 1
87 95 -1
87 100 1
88 91 1
88 94 -1
89 94 1
89 95 -1
91 93 -1
91 95 1
91 96 1
92 99 1
93 96 1
94 96 -1
95 100 1
96 99 1
97 98 1
97 99 1
98 100 -1
99 100 -1
